<?xml version = "1.0" standalone="yes"?>
<!-- This file has been generated by DOcplex version 2.23.222  -->
<CPLEXSolution version="1.0">
 <header
   problemName="CVRP"
   objectiveValue="8841.86"
  />
 <variables>
  <variable name="x_0_2" index="1" value="1.00000"/>
  <variable name="x_0_3" index="2" value="1.00000"/>
  <variable name="x_0_4" index="3" value="1.00000"/>
  <variable name="x_0_8" index="7" value="1.00000"/>
  <variable name="x_0_9" index="8" value="1.00000"/>
  <variable name="x_0_10" index="9" value="1.00000"/>
  <variable name="x_0_11" index="10" value="1.00000"/>
  <variable name="x_1_0" index="13" value="1.00000"/>
  <variable name="x_2_0" index="26" value="1.00000"/>
  <variable name="x_3_1" index="40" value="1.00000"/>
  <variable name="x_4_12" index="63" value="1.00000"/>
  <variable name="x_5_0" index="65" value="1.00000"/>
  <variable name="x_6_0" index="78" value="1.00000"/>
  <variable name="x_7_0" index="91" value="1.00000"/>
  <variable name="x_8_13" index="116" value="1.00000"/>
  <variable name="x_9_5" index="122" value="1.00000"/>
  <variable name="x_10_7" index="137" value="1.00000"/>
  <variable name="x_11_6" index="149" value="1.00000"/>
  <variable name="x_12_0" index="156" value="1.00000"/>
  <variable name="x_13_0" index="169" value="1.00000"/>
  <variable name="u_1" index="182" value="41.00000"/>
  <variable name="u_2" index="183" value="26.00000"/>
  <variable name="u_3" index="184" value="6.00000"/>
  <variable name="u_4" index="185" value="16.00000"/>
  <variable name="u_5" index="186" value="50.00000"/>
  <variable name="u_6" index="187" value="48.00000"/>
  <variable name="u_7" index="188" value="42.00000"/>
  <variable name="u_8" index="189" value="18.00000"/>
  <variable name="u_9" index="190" value="35.00000"/>
  <variable name="u_10" index="191" value="16.00000"/>
  <variable name="u_11" index="192" value="14.00000"/>
  <variable name="u_12" index="193" value="47.00000"/>
  <variable name="u_13" index="194" value="47.00000"/>
 </variables>
</CPLEXSolution>
